c SAT Generator for power-law distributed variable frequencies
c -g u -v 20 -c 91 -k 3 -p 2.750000 -b 3.200000 -f /home/schmidt/Devel/ni-kop-sat/data/ensemble/ruf20-91/ruf20-91-16 -u 1 -U 1 -s 3367465017
p cnf 20 91
9 16 -18 0
-4 -6 -17 0
2 6 -14 0
7 -8 -11 0
-11 15 -20 0
-1 -4 -13 0
-8 -9 -16 0
-7 8 -17 0
-15 -18 19 0
-9 13 -17 0
1 -8 -18 0
-5 -17 19 0
4 -10 11 0
4 8 15 0
2 10 16 0
-2 -5 -14 0
14 15 19 0
3 -11 15 0
9 -11 -16 0
-3 6 -19 0
2 -5 -20 0
3 4 5 0
-13 15 -20 0
11 -15 -16 0
6 -9 -11 0
-1 5 -10 0
-10 11 14 0
4 5 -17 0
1 -6 19 0
8 -11 20 0
1 -4 17 0
7 -17 -18 0
5 -8 -19 0
9 -12 17 0
-6 11 -15 0
5 -18 19 0
1 -9 11 0
13 16 -19 0
6 -12 -14 0
8 -14 19 0
-10 14 -18 0
-2 -3 -15 0
-7 -9 -11 0
2 6 11 0
6 -14 18 0
-3 -10 20 0
-14 -18 -19 0
3 -7 11 0
-6 13 -15 0
5 12 -14 0
-1 -3 -12 0
-5 -7 17 0
6 9 13 0
-4 19 20 0
2 -3 10 0
-2 -10 -12 0
-12 -14 -19 0
-14 -15 -19 0
6 13 15 0
-2 5 20 0
-3 8 -20 0
-10 18 -20 0
-2 14 20 0
-12 15 18 0
6 7 -8 0
-4 -19 20 0
-5 -6 -12 0
1 13 -14 0
3 5 12 0
1 11 -17 0
6 7 15 0
3 8 17 0
1 10 11 0
-1 2 -19 0
5 -8 -13 0
-2 5 -14 0
13 -14 -16 0
1 -13 -20 0
-5 -12 -17 0
-1 -3 -11 0
-6 16 19 0
7 14 -20 0
6 -19 -20 0
-8 -10 20 0
7 -11 -13 0
-5 6 7 0
-2 -5 19 0
-8 -9 -17 0
2 6 13 0
8 -10 -17 0
-4 -13 19 0
